cost: 726.77
Route 1:           0   33    7   20    6   45   35   30   19   11   36   27   43   28   26    0
Route 2:           0   39   24    2   17   10   25   21   15   46   23   22    5   14    3   16   47    0
Route 3:           0   44   29    4    8   34   48    1   50   38   37   32   12   40    9   41   13   18    0
Route 4:           0   49   42   31    0
